10J3M/DAT/10J3MUTR-12.dat
10 3
23.5916 1.608
30.7263 42.3085
10.2227 0.8857
28.7847 38.2928
18.5007 30.1425
10.5405 49.2136
41.9779 25.1638
30.8929 6.732
38.1908 12.5687
41.8178 13.8342
55.1875