10J3M/SOL/10J3MUTR-12.sol
solution status: optimal solution found
objective value:                     77.2134713541285
x#1#1                                               1 	(obj:0)
x#2#1                                               1 	(obj:0)
x#3#2                                               1 	(obj:0)
x#4#2                               0.226077704114381 	(obj:0)
x#5#1                                               1 	(obj:0)
x#6#3                                               1 	(obj:0)
x#8#1                              0.0546461720400235 	(obj:0)
x#8#2                               0.622049319803626 	(obj:0)
x#8#3                                0.32330450815635 	(obj:0)
x#9#2                               0.612263053025321 	(obj:0)
x#9#3                               0.387736946974679 	(obj:0)
x#10#1                              0.709420731561108 	(obj:0)
x#10#3                              0.290579268438892 	(obj:0)
z                                    77.2134713541285 	(obj:1)
